decision_x1=[0,7];
decision_x2=[0,7];
decision_x3=[0,7];
decision_x4=[0,7];
decision_x5=[0,7];
decision_x6=[0,7];
decision_x7=[0,7];
decision_x8=[0,7];
decision_x9=[0,7];
decision_x10=[0,7];
decision_x11=[0,7];
decision_x12=[0,7];
decision_x13=[0,7];
decision_x14=[0,7];
decision_x15=[0,7];
decision_x16=[0,7];
decision_x17=[0,7];
decision_x18=[0,7];
random_y1=[0,7];
random_y2=[0,7];
random_y3=[0,7];
random_y4=[0,7];
random_y5=[0,7];
random_y6=[0,7];
random_y7=[0,7];
random_y8=[0,7];
constraint_x2_x1=[
0,0,1.4|
0,1,8.9|
0,2,5.5|
0,3,7.7|
0,4,1.5|
0,5,9.7|
0,6,5.9|
0,7,9.5|
1,0,3.4|
1,1,0.0068|
1,2,4.3|
1,3,3.3|
1,4,4.8|
1,5,4.2|
1,6,5.1|
1,7,6.8|
2,0,7.4|
2,1,4.3|
2,2,7.8|
2,3,3.7|
2,4,1.1|
2,5,4.5|
2,6,9.3|
2,7,6.1|
3,0,5.7|
3,1,5.5|
3,2,1.6|
3,3,3.7|
3,4,9.9|
3,5,9.9|
3,6,5.9|
3,7,3|
4,0,5.9|
4,1,0.98|
4,2,9.3|
4,3,6|
4,4,4.8|
4,5,3.9|
4,6,3.6|
4,7,1.8|
5,0,8.8|
5,1,4.4|
5,2,1.5|
5,3,8.5|
5,4,9.9|
5,5,8.3|
5,6,6.6|
5,7,5.9|
6,0,2.5|
6,1,9.3|
6,2,4.5|
6,3,9.1|
6,4,0.96|
6,5,4|
6,6,1.4|
6,7,0.33|
7,0,2.1|
7,1,8.3|
7,2,3.9|
7,3,2.9|
7,4,2.3|
7,5,7.6|
7,6,0.13|
7,7,6.9|
];
constraint_x3_x2=[
0,0,5.1|
0,1,6.5|
0,2,8|
0,3,4.3|
0,4,4.5|
0,5,8.8|
0,6,7.2|
0,7,7|
1,0,7.9|
1,1,4.2|
1,2,6.9|
1,3,2.7|
1,4,6.5|
1,5,1.1|
1,6,5.8|
1,7,2.2|
2,0,1|
2,1,8.6|
2,2,0.019|
2,3,8.8|
2,4,3.7|
2,5,5.6|
2,6,3.9|
2,7,7.8|
3,0,8.7|
3,1,8|
3,2,0.2|
3,3,8.8|
3,4,1.3|
3,5,9|
3,6,6.2|
3,7,0.61|
4,0,3.9|
4,1,1.5|
4,2,0.27|
4,3,3|
4,4,1.8|
4,5,1.6|
4,6,7|
4,7,1.4|
5,0,6.7|
5,1,4.8|
5,2,7.4|
5,3,2.7|
5,4,3.1|
5,5,9|
5,6,3|
5,7,9.7|
6,0,2|
6,1,7.1|
6,2,3.7|
6,3,2.2|
6,4,1.2|
6,5,0.69|
6,6,7.6|
6,7,8.6|
7,0,0.19|
7,1,1.2|
7,2,9|
7,3,7.3|
7,4,1.8|
7,5,9.3|
7,6,6.9|
7,7,7.5|
];
constraint_x4_x3=[
0,0,0.82|
0,1,9.4|
0,2,4|
0,3,6.6|
0,4,5.1|
0,5,4.4|
0,6,8.7|
0,7,8.5|
1,0,7.8|
1,1,5.4|
1,2,3.4|
1,3,1.9|
1,4,6.3|
1,5,9.9|
1,6,5.4|
1,7,4.9|
2,0,1.5|
2,1,3.9|
2,2,0.52|
2,3,7.5|
2,4,7.6|
2,5,7.3|
2,6,9.5|
2,7,6.8|
3,0,9.3|
3,1,4.1|
3,2,8|
3,3,9.6|
3,4,5.8|
3,5,2.3|
3,6,0.14|
3,7,8.7|
4,0,5|
4,1,3.2|
4,2,0.67|
4,3,5.8|
4,4,7.1|
4,5,2.8|
4,6,5.6|
4,7,3.5|
5,0,0.82|
5,1,4.1|
5,2,7.2|
5,3,0.06|
5,4,5.7|
5,5,4.1|
5,6,2.7|
5,7,5|
6,0,4.2|
6,1,3|
6,2,0.87|
6,3,8.9|
6,4,5.3|
6,5,1.4|
6,6,3.6|
6,7,3.1|
7,0,2.4|
7,1,1.4|
7,2,4.1|
7,3,1.3|
7,4,1.3|
7,5,8.8|
7,6,7|
7,7,5.5|
];
constraint_x5_x1=[
0,0,7.2|
0,1,2.7|
0,2,4.1|
0,3,6|
0,4,9.6|
0,5,9.3|
0,6,4.2|
0,7,6.2|
1,0,4.2|
1,1,2.9|
1,2,4.9|
1,3,9.9|
1,4,4.3|
1,5,9|
1,6,1.4|
1,7,7.8|
2,0,6.7|
2,1,3.5|
2,2,3.5|
2,3,0.065|
2,4,3.7|
2,5,9.7|
2,6,2.5|
2,7,1.7|
3,0,7.6|
3,1,6|
3,2,2.4|
3,3,9.8|
3,4,7.7|
3,5,8.3|
3,6,5.8|
3,7,5.8|
4,0,0.85|
4,1,8.7|
4,2,0.0028|
4,3,7.2|
4,4,8|
4,5,3.9|
4,6,6.7|
4,7,1.7|
5,0,4.2|
5,1,8.8|
5,2,7.6|
5,3,1.4|
5,4,1.9|
5,5,9.1|
5,6,6.5|
5,7,5.8|
6,0,7.1|
6,1,2|
6,2,8|
6,3,7.6|
6,4,8.4|
6,5,8.7|
6,6,8.4|
6,7,5.7|
7,0,9.4|
7,1,1.9|
7,2,1.9|
7,3,1.3|
7,4,0.17|
7,5,4.9|
7,6,1.3|
7,7,4.3|
];
constraint_x6_x2=[
0,0,4.3|
0,1,2.4|
0,2,5.3|
0,3,5.5|
0,4,1.6|
0,5,3.2|
0,6,2.1|
0,7,8.6|
1,0,3.6|
1,1,7.1|
1,2,4.9|
1,3,0.86|
1,4,5.1|
1,5,8|
1,6,3.3|
1,7,9.6|
2,0,1.2|
2,1,1.9|
2,2,6.6|
2,3,0.25|
2,4,7.2|
2,5,6.1|
2,6,9.5|
2,7,3.5|
3,0,9.5|
3,1,8.9|
3,2,2|
3,3,6.4|
3,4,6|
3,5,5.6|
3,6,8.9|
3,7,4.8|
4,0,5.5|
4,1,8.5|
4,2,1.1|
4,3,8.2|
4,4,2.8|
4,5,0.065|
4,6,7.6|
4,7,2.8|
5,0,2.2|
5,1,1.9|
5,2,3.7|
5,3,3.2|
5,4,3.2|
5,5,4.2|
5,6,7.5|
5,7,3.7|
6,0,2.1|
6,1,6.1|
6,2,0.36|
6,3,5.7|
6,4,8.9|
6,5,8.4|
6,6,0.17|
6,7,8.7|
7,0,6.9|
7,1,0.2|
7,2,6.4|
7,3,0.38|
7,4,3.7|
7,5,4.2|
7,6,8.2|
7,7,6.5|
];
constraint_x7_x3=[
0,0,6.3|
0,1,2|
0,2,6.1|
0,3,6.2|
0,4,8.1|
0,5,4.4|
0,6,2.7|
0,7,6.4|
1,0,7.8|
1,1,1.6|
1,2,8.4|
1,3,8.7|
1,4,9.5|
1,5,8.7|
1,6,3.8|
1,7,6.2|
2,0,7|
2,1,8.1|
2,2,8.7|
2,3,0.9|
2,4,8.9|
2,5,2.8|
2,6,6.7|
2,7,1.1|
3,0,0.91|
3,1,3.9|
3,2,3.1|
3,3,8.2|
3,4,9.9|
3,5,8.4|
3,6,9.8|
3,7,9.8|
4,0,4|
4,1,4.4|
4,2,0.45|
4,3,8.4|
4,4,6.7|
4,5,2.1|
4,6,9.4|
4,7,3.5|
5,0,6.3|
5,1,2.6|
5,2,6.3|
5,3,4.6|
5,4,1.6|
5,5,5.5|
5,6,3.8|
5,7,5.9|
6,0,5.6|
6,1,4.9|
6,2,6.9|
6,3,8|
6,4,7.8|
6,5,4.4|
6,6,3.9|
6,7,5.7|
7,0,3|
7,1,8.3|
7,2,4.5|
7,3,1.7|
7,4,4.9|
7,5,4.8|
7,6,5.9|
7,7,1.7|
];
constraint_x8_x4=[
0,0,6.7|
0,1,7.3|
0,2,3.6|
0,3,7.4|
0,4,5.3|
0,5,8.3|
0,6,3|
0,7,3|
1,0,4.6|
1,1,0.74|
1,2,3.2|
1,3,4.7|
1,4,1.1|
1,5,5.2|
1,6,9.5|
1,7,4.2|
2,0,6.4|
2,1,4.7|
2,2,1.5|
2,3,8.3|
2,4,6.3|
2,5,9.6|
2,6,3.3|
2,7,5.1|
3,0,2.4|
3,1,2.2|
3,2,5.2|
3,3,6|
3,4,1.6|
3,5,1.1|
3,6,8|
3,7,3.5|
4,0,2|
4,1,5.6|
4,2,2.7|
4,3,1.2|
4,4,8.1|
4,5,4.2|
4,6,4.4|
4,7,1.3|
5,0,9.3|
5,1,7.7|
5,2,6.1|
5,3,7.3|
5,4,3.7|
5,5,2.6|
5,6,0.35|
5,7,9.5|
6,0,8|
6,1,8.6|
6,2,2.6|
6,3,1.6|
6,4,3.3|
6,5,9.3|
6,6,9.8|
6,7,6|
7,0,6.8|
7,1,9.9|
7,2,4.8|
7,3,5.1|
7,4,8.8|
7,5,1.9|
7,6,4.9|
7,7,3.6|
];
constraint_x9_x5=[
0,0,0.1|
0,1,3.5|
0,2,9.8|
0,3,2.4|
0,4,2.9|
0,5,8.5|
0,6,9.3|
0,7,0.36|
1,0,5.1|
1,1,9.1|
1,2,2|
1,3,0.4|
1,4,8.3|
1,5,2.7|
1,6,7.6|
1,7,4|
2,0,8.9|
2,1,4.9|
2,2,4|
2,3,5.4|
2,4,5|
2,5,5.4|
2,6,1.2|
2,7,2.4|
3,0,5.2|
3,1,3.8|
3,2,8.6|
3,3,0.54|
3,4,2.3|
3,5,2.3|
3,6,5.5|
3,7,2.1|
4,0,0.97|
4,1,1.2|
4,2,3.4|
4,3,1.4|
4,4,6.7|
4,5,5.4|
4,6,2.9|
4,7,1.2|
5,0,5.5|
5,1,7.9|
5,2,2.1|
5,3,4|
5,4,2.7|
5,5,5|
5,6,2.1|
5,7,0.27|
6,0,8.6|
6,1,4.9|
6,2,0.52|
6,3,7.3|
6,4,5.8|
6,5,4.2|
6,6,9.5|
6,7,7.9|
7,0,6|
7,1,8.7|
7,2,2.6|
7,3,2.2|
7,4,1.6|
7,5,1.4|
7,6,7.4|
7,7,6.9|
];
constraint_x10_x6=[
0,0,0.74|
0,1,4.5|
0,2,7.6|
0,3,4.3|
0,4,3.7|
0,5,2.1|
0,6,1.1|
0,7,5.7|
1,0,1.6|
1,1,3.3|
1,2,6.3|
1,3,8.6|
1,4,7.3|
1,5,9.3|
1,6,9.8|
1,7,9.4|
2,0,3.1|
2,1,1.1|
2,2,1.1|
2,3,4.7|
2,4,4.5|
2,5,3.5|
2,6,8.1|
2,7,0.72|
3,0,8|
3,1,7.7|
3,2,6.1|
3,3,7.8|
3,4,0.58|
3,5,9.9|
3,6,1.2|
3,7,9.1|
4,0,5.8|
4,1,2.3|
4,2,6.5|
4,3,2.3|
4,4,3.4|
4,5,9.9|
4,6,5.4|
4,7,5.7|
5,0,2.3|
5,1,8.9|
5,2,9.5|
5,3,2.4|
5,4,0.36|
5,5,4|
5,6,8|
5,7,7.1|
6,0,4.2|
6,1,0.36|
6,2,7.3|
6,3,2.6|
6,4,2.2|
6,5,8.4|
6,6,7.6|
6,7,2.3|
7,0,7.7|
7,1,4.1|
7,2,4.9|
7,3,9.5|
7,4,2.4|
7,5,0.9|
7,6,3.2|
7,7,9.2|
];
constraint_x11_x7=[
0,0,2.2|
0,1,1.7|
0,2,7.9|
0,3,4.3|
0,4,5.2|
0,5,9.7|
0,6,2.5|
0,7,5.7|
1,0,5.4|
1,1,9.6|
1,2,4.6|
1,3,9.7|
1,4,9.8|
1,5,2.8|
1,6,1.7|
1,7,1.2|
2,0,6.2|
2,1,2.9|
2,2,9.1|
2,3,5.3|
2,4,6.3|
2,5,8.4|
2,6,2.6|
2,7,0.63|
3,0,9.7|
3,1,0.67|
3,2,2|
3,3,4.1|
3,4,8.9|
3,5,6.6|
3,6,9.1|
3,7,4.4|
4,0,6.4|
4,1,8|
4,2,1.3|
4,3,2.5|
4,4,4.6|
4,5,5.5|
4,6,7.1|
4,7,8|
5,0,10|
5,1,0.74|
5,2,0.97|
5,3,6.2|
5,4,7.6|
5,5,0.67|
5,6,7.3|
5,7,3.7|
6,0,7.7|
6,1,3.6|
6,2,2.3|
6,3,1.6|
6,4,6.4|
6,5,5.5|
6,6,1.5|
6,7,1.8|
7,0,0.098|
7,1,0.51|
7,2,8.9|
7,3,5.7|
7,4,3.7|
7,5,7.5|
7,6,8.9|
7,7,3.1|
];
constraint_x12_x8=[
0,0,5.5|
0,1,8.7|
0,2,6.1|
0,3,2.9|
0,4,0.24|
0,5,6.6|
0,6,0.7|
0,7,1.2|
1,0,4.1|
1,1,4.9|
1,2,2.8|
1,3,6|
1,4,8.7|
1,5,8.3|
1,6,9|
1,7,6.1|
2,0,3.1|
2,1,6.1|
2,2,5.7|
2,3,8.2|
2,4,2.6|
2,5,6.5|
2,6,4.4|
2,7,1.2|
3,0,5.2|
3,1,9|
3,2,0.38|
3,3,1.3|
3,4,5.7|
3,5,1.5|
3,6,1.8|
3,7,7.4|
4,0,2.4|
4,1,1.5|
4,2,9.6|
4,3,3.2|
4,4,9|
4,5,0.39|
4,6,4.1|
4,7,6.8|
5,0,1|
5,1,2|
5,2,8.7|
5,3,5.6|
5,4,7.9|
5,5,7.3|
5,6,8|
5,7,0.64|
6,0,0.014|
6,1,1.3|
6,2,2.8|
6,3,3.6|
6,4,0.37|
6,5,0.22|
6,6,8.6|
6,7,2.1|
7,0,4.7|
7,1,7.8|
7,2,0.46|
7,3,9.5|
7,4,6.5|
7,5,3.6|
7,6,0.11|
7,7,5.7|
];
constraint_x13_x9=[
0,0,5.4|
0,1,5.7|
0,2,1.1|
0,3,2.7|
0,4,8.2|
0,5,2.4|
0,6,2.4|
0,7,3.5|
1,0,6.7|
1,1,8.5|
1,2,4.8|
1,3,7.6|
1,4,3.6|
1,5,6|
1,6,8.9|
1,7,3.5|
2,0,8.1|
2,1,2.8|
2,2,8.1|
2,3,1.9|
2,4,8.4|
2,5,0.78|
2,6,2.6|
2,7,8.3|
3,0,2.7|
3,1,3.9|
3,2,8.2|
3,3,0.92|
3,4,3.8|
3,5,6.3|
3,6,8.5|
3,7,2.5|
4,0,8.1|
4,1,5.8|
4,2,3.9|
4,3,7.5|
4,4,7.2|
4,5,1.4|
4,6,2.7|
4,7,2.1|
5,0,9.4|
5,1,4.6|
5,2,1.5|
5,3,8.8|
5,4,6.2|
5,5,1.2|
5,6,9.8|
5,7,5.8|
6,0,2.1|
6,1,2.2|
6,2,8.4|
6,3,2.2|
6,4,9.6|
6,5,3.9|
6,6,8.2|
6,7,8.8|
7,0,5.7|
7,1,8.1|
7,2,3.9|
7,3,1.1|
7,4,7.2|
7,5,7.4|
7,6,7.1|
7,7,7.1|
];
constraint_x14_x10=[
0,0,1.8|
0,1,2|
0,2,9.2|
0,3,7|
0,4,6.3|
0,5,3.3|
0,6,5.3|
0,7,4.2|
1,0,4.2|
1,1,7.6|
1,2,4.3|
1,3,8.5|
1,4,8.7|
1,5,0.26|
1,6,4.9|
1,7,5.5|
2,0,1.2|
2,1,5.1|
2,2,6.6|
2,3,6.9|
2,4,5.8|
2,5,6|
2,6,9.5|
2,7,0.46|
3,0,4.5|
3,1,7.1|
3,2,5.4|
3,3,9.5|
3,4,3.4|
3,5,2.2|
3,6,6.7|
3,7,9.2|
4,0,0.94|
4,1,5.5|
4,2,1.6|
4,3,0.06|
4,4,2.6|
4,5,2.4|
4,6,1.5|
4,7,0.27|
5,0,6.7|
5,1,2.2|
5,2,5.9|
5,3,3.6|
5,4,3.1|
5,5,1.5|
5,6,9.6|
5,7,4.8|
6,0,1.1|
6,1,6.5|
6,2,2|
6,3,3.7|
6,4,2.3|
6,5,3.8|
6,6,5.9|
6,7,1.9|
7,0,2.2|
7,1,7.3|
7,2,1.7|
7,3,2.5|
7,4,3.6|
7,5,9.2|
7,6,6.5|
7,7,7.8|
];
constraint_x15_x11=[
0,0,2|
0,1,6.6|
0,2,3.1|
0,3,4.3|
0,4,3.3|
0,5,1.2|
0,6,1.2|
0,7,5.5|
1,0,5.4|
1,1,1.1|
1,2,6.5|
1,3,8|
1,4,3.4|
1,5,8.3|
1,6,2.8|
1,7,9.1|
2,0,2.3|
2,1,6.9|
2,2,2.5|
2,3,3.4|
2,4,1.5|
2,5,6.6|
2,6,2.4|
2,7,1.2|
3,0,1.8|
3,1,0.59|
3,2,6.1|
3,3,7.9|
3,4,6|
3,5,5.3|
3,6,3.3|
3,7,9.1|
4,0,0.94|
4,1,3.9|
4,2,1.4|
4,3,7.3|
4,4,4.4|
4,5,5.3|
4,6,5.9|
4,7,6.5|
5,0,5.8|
5,1,3.8|
5,2,7.4|
5,3,3.9|
5,4,0.32|
5,5,6.1|
5,6,1.2|
5,7,2.8|
6,0,3.9|
6,1,6.9|
6,2,2.6|
6,3,3.9|
6,4,9|
6,5,8.3|
6,6,2.5|
6,7,9.2|
7,0,2|
7,1,7.8|
7,2,3.7|
7,3,3.2|
7,4,1.8|
7,5,3.6|
7,6,4.3|
7,7,3|
];
constraint_x16_x12=[
0,0,3.8|
0,1,7.9|
0,2,6.9|
0,3,8.4|
0,4,8.3|
0,5,8.4|
0,6,7.5|
0,7,0.7|
1,0,2.4|
1,1,0.78|
1,2,7.7|
1,3,10|
1,4,2.4|
1,5,1.5|
1,6,5.4|
1,7,8|
2,0,6.5|
2,1,3.7|
2,2,3|
2,3,8.1|
2,4,2.7|
2,5,6.8|
2,6,2.7|
2,7,3.7|
3,0,4.3|
3,1,2.4|
3,2,4.4|
3,3,5.8|
3,4,2.6|
3,5,6.4|
3,6,4.6|
3,7,5.5|
4,0,8|
4,1,6.3|
4,2,4|
4,3,4|
4,4,8|
4,5,9.2|
4,6,7.4|
4,7,2.2|
5,0,3.6|
5,1,2.4|
5,2,7.1|
5,3,4.3|
5,4,4.7|
5,5,1.7|
5,6,2.5|
5,7,5.8|
6,0,2.8|
6,1,1|
6,2,8.2|
6,3,3.5|
6,4,9.5|
6,5,3.1|
6,6,8.3|
6,7,9.5|
7,0,9.4|
7,1,2.8|
7,2,8.6|
7,3,1.3|
7,4,1.9|
7,5,8.4|
7,6,4.7|
7,7,0.12|
];
constraint_x17_x13=[
0,0,5.8|
0,1,2.6|
0,2,4|
0,3,1.8|
0,4,8.2|
0,5,0.58|
0,6,9.4|
0,7,9.3|
1,0,7.4|
1,1,6.6|
1,2,5.5|
1,3,2.3|
1,4,0.6|
1,5,8.1|
1,6,5.2|
1,7,7.8|
2,0,0.26|
2,1,4.6|
2,2,7|
2,3,5.3|
2,4,7|
2,5,5.8|
2,6,2|
2,7,0.098|
3,0,7.3|
3,1,8.7|
3,2,3.6|
3,3,2.5|
3,4,2.9|
3,5,9.7|
3,6,10|
3,7,4.3|
4,0,8.5|
4,1,5.4|
4,2,6|
4,3,8.7|
4,4,5.2|
4,5,6.2|
4,6,0.85|
4,7,0.51|
5,0,3.8|
5,1,7.9|
5,2,2.8|
5,3,4.2|
5,4,1|
5,5,5.2|
5,6,2|
5,7,5.7|
6,0,0.29|
6,1,9.2|
6,2,6.3|
6,3,0.8|
6,4,0.52|
6,5,8.3|
6,6,1.2|
6,7,1.9|
7,0,4.7|
7,1,9.3|
7,2,0.88|
7,3,2|
7,4,8.4|
7,5,6.2|
7,6,4.9|
7,7,2.3|
];
constraint_x18_x14=[
0,0,7|
0,1,2.9|
0,2,9|
0,3,4.2|
0,4,6|
0,5,6|
0,6,2.8|
0,7,4|
1,0,1.4|
1,1,3.1|
1,2,8.1|
1,3,2.7|
1,4,2.6|
1,5,6.2|
1,6,6.5|
1,7,3.2|
2,0,8.1|
2,1,0.36|
2,2,2.5|
2,3,1.9|
2,4,3.4|
2,5,9|
2,6,1.8|
2,7,0.33|
3,0,0.62|
3,1,4.1|
3,2,6.6|
3,3,5.3|
3,4,0.64|
3,5,1.8|
3,6,0.76|
3,7,2.8|
4,0,5.3|
4,1,6.6|
4,2,7.5|
4,3,2.4|
4,4,4|
4,5,5.7|
4,6,6|
4,7,3.6|
5,0,7.8|
5,1,9.5|
5,2,8|
5,3,9.8|
5,4,1.1|
5,5,4.3|
5,6,3.9|
5,7,0.74|
6,0,5.3|
6,1,5.8|
6,2,5.5|
6,3,2|
6,4,6.1|
6,5,7.5|
6,6,8.2|
6,7,1.2|
7,0,5.5|
7,1,1.5|
7,2,3|
7,3,7|
7,4,2.7|
7,5,8.1|
7,6,4.3|
7,7,3.9|
];
constraint_x1_y1=[
0,0,2.1|
0,1,5.1|
0,2,4.7|
0,3,7.4|
0,4,7.2|
0,5,7.1|
0,6,9.2|
0,7,2.3|
1,0,3.2|
1,1,8.2|
1,2,3.6|
1,3,9.6|
1,4,9|
1,5,1.7|
1,6,7.6|
1,7,7.4|
2,0,7.6|
2,1,8.1|
2,2,4.5|
2,3,4.6|
2,4,4.4|
2,5,3.6|
2,6,0.53|
2,7,9.5|
3,0,4.4|
3,1,4.9|
3,2,7|
3,3,4.5|
3,4,3.3|
3,5,6.7|
3,6,2.1|
3,7,2|
4,0,5.3|
4,1,2.4|
4,2,2|
4,3,0.63|
4,4,5|
4,5,4.2|
4,6,9|
4,7,8.1|
5,0,4.5|
5,1,1.5|
5,2,9.7|
5,3,2.8|
5,4,9.8|
5,5,0.29|
5,6,5.5|
5,7,6|
6,0,0.19|
6,1,9.2|
6,2,4.2|
6,3,9.1|
6,4,8.1|
6,5,3.2|
6,6,8.9|
6,7,8.1|
7,0,6.9|
7,1,7.8|
7,2,9.7|
7,3,9.4|
7,4,8.8|
7,5,0.71|
7,6,5.7|
7,7,0.52|
];
constraint_x2_y2=[
0,0,3.1|
0,1,7.4|
0,2,6.6|
0,3,3.1|
0,4,7|
0,5,8.2|
0,6,1.4|
0,7,5|
1,0,7.8|
1,1,7.1|
1,2,2.2|
1,3,9.5|
1,4,9.9|
1,5,2|
1,6,2.3|
1,7,1.9|
2,0,7.3|
2,1,0.0025|
2,2,8.3|
2,3,6.7|
2,4,0.03|
2,5,4.6|
2,6,7.5|
2,7,5.4|
3,0,1.6|
3,1,0.18|
3,2,1.5|
3,3,8.7|
3,4,0.019|
3,5,1.7|
3,6,4.1|
3,7,8|
4,0,2.6|
4,1,3.8|
4,2,9.1|
4,3,8.1|
4,4,7.7|
4,5,1.6|
4,6,5.1|
4,7,6.9|
5,0,8.5|
5,1,2.3|
5,2,9.2|
5,3,5.8|
5,4,2.1|
5,5,8.3|
5,6,6.2|
5,7,1|
6,0,4.8|
6,1,4|
6,2,8.8|
6,3,2.8|
6,4,2.5|
6,5,6.2|
6,6,9.8|
6,7,4.7|
7,0,9.6|
7,1,0.38|
7,2,4.1|
7,3,2|
7,4,6.7|
7,5,0.71|
7,6,7.1|
7,7,8.6|
];
constraint_x3_y3=[
0,0,5.6|
0,1,6.5|
0,2,3.5|
0,3,1.8|
0,4,1.3|
0,5,8.1|
0,6,2.3|
0,7,1|
1,0,6.4|
1,1,4|
1,2,6.2|
1,3,4.7|
1,4,3.1|
1,5,0.44|
1,6,2.5|
1,7,2.1|
2,0,0.92|
2,1,0.31|
2,2,4.9|
2,3,1.4|
2,4,4|
2,5,9.6|
2,6,9.2|
2,7,9.6|
3,0,1.3|
3,1,9.2|
3,2,6.4|
3,3,4.6|
3,4,3.1|
3,5,5.4|
3,6,7.5|
3,7,5.3|
4,0,1.5|
4,1,9.7|
4,2,1.6|
4,3,9.8|
4,4,6.9|
4,5,3.4|
4,6,8.9|
4,7,2.4|
5,0,6.4|
5,1,6.3|
5,2,8.3|
5,3,9.6|
5,4,7.3|
5,5,7.2|
5,6,3|
5,7,5.4|
6,0,5.5|
6,1,1.3|
6,2,8.2|
6,3,3.5|
6,4,4.2|
6,5,2|
6,6,5.4|
6,7,7.5|
7,0,7.8|
7,1,5.8|
7,2,8|
7,3,4.3|
7,4,4.2|
7,5,2.8|
7,6,9.6|
7,7,4.7|
];
constraint_x4_y4=[
0,0,3.9|
0,1,5.5|
0,2,9.6|
0,3,1.1|
0,4,9.6|
0,5,1.3|
0,6,3.2|
0,7,9.6|
1,0,6.1|
1,1,5.8|
1,2,3.6|
1,3,6.3|
1,4,1.8|
1,5,4.7|
1,6,5.7|
1,7,4.5|
2,0,3.7|
2,1,0.4|
2,2,2.3|
2,3,0.92|
2,4,2.8|
2,5,7.3|
2,6,1.9|
2,7,5.3|
3,0,4.5|
3,1,9.7|
3,2,3.1|
3,3,6.8|
3,4,5.8|
3,5,5.6|
3,6,5.3|
3,7,9.7|
4,0,8|
4,1,5.1|
4,2,9.7|
4,3,8.3|
4,4,7|
4,5,6.7|
4,6,2.6|
4,7,6.8|
5,0,8.3|
5,1,6.6|
5,2,8.5|
5,3,6.6|
5,4,2.4|
5,5,9.8|
5,6,7.6|
5,7,6.5|
6,0,9|
6,1,8.5|
6,2,8.3|
6,3,0.68|
6,4,7.6|
6,5,5.2|
6,6,2.4|
6,7,7.1|
7,0,3.2|
7,1,7.3|
7,2,9.7|
7,3,0.34|
7,4,4.5|
7,5,5.9|
7,6,3.8|
7,7,1.5|
];
constraint_x5_y5=[
0,0,7.1|
0,1,4.5|
0,2,6|
0,3,2.3|
0,4,1.6|
0,5,9.2|
0,6,1.9|
0,7,6.4|
1,0,3.6|
1,1,6.3|
1,2,1|
1,3,9.7|
1,4,3.2|
1,5,3.9|
1,6,2.3|
1,7,1.4|
2,0,2.6|
2,1,2.6|
2,2,0.59|
2,3,6.6|
2,4,5.9|
2,5,7.9|
2,6,1.6|
2,7,7.6|
3,0,0.36|
3,1,0.77|
3,2,2.5|
3,3,8.2|
3,4,6.1|
3,5,8.6|
3,6,1.5|
3,7,3.7|
4,0,1.1|
4,1,7.8|
4,2,4.9|
4,3,8.6|
4,4,3.5|
4,5,0.36|
4,6,5.3|
4,7,8.5|
5,0,0.82|
5,1,9.4|
5,2,8.4|
5,3,6.8|
5,4,0.33|
5,5,4.5|
5,6,7.9|
5,7,2.1|
6,0,3.3|
6,1,9.5|
6,2,3.4|
6,3,3.8|
6,4,5.6|
6,5,2.2|
6,6,0.66|
6,7,9.9|
7,0,1|
7,1,0.64|
7,2,9.8|
7,3,6|
7,4,0.93|
7,5,8.4|
7,6,9.1|
7,7,7.8|
];
constraint_x6_y6=[
0,0,1.2|
0,1,6|
0,2,4.5|
0,3,7.4|
0,4,6.9|
0,5,8.8|
0,6,9.9|
0,7,0.42|
1,0,3.7|
1,1,9.1|
1,2,8|
1,3,7.9|
1,4,9.8|
1,5,4.5|
1,6,0.37|
1,7,1.5|
2,0,9.8|
2,1,5.1|
2,2,4.1|
2,3,5.3|
2,4,9.6|
2,5,1.5|
2,6,2.7|
2,7,7.9|
3,0,6|
3,1,9.4|
3,2,9|
3,3,4|
3,4,1.6|
3,5,0.91|
3,6,6.1|
3,7,3.8|
4,0,0.52|
4,1,1.3|
4,2,7.8|
4,3,1.8|
4,4,7.8|
4,5,5.4|
4,6,2.9|
4,7,4.4|
5,0,4.6|
5,1,1.1|
5,2,2.2|
5,3,8.9|
5,4,9.9|
5,5,9.2|
5,6,7|
5,7,4.4|
6,0,2.3|
6,1,2.4|
6,2,6.4|
6,3,5.2|
6,4,0.67|
6,5,7.5|
6,6,6.4|
6,7,0.89|
7,0,9.1|
7,1,5.5|
7,2,6.2|
7,3,9.9|
7,4,2.7|
7,5,6.7|
7,6,8.8|
7,7,4.4|
];
constraint_x7_y7=[
0,0,1.5|
0,1,3.4|
0,2,3.8|
0,3,1.7|
0,4,9.9|
0,5,1.8|
0,6,4.1|
0,7,0.2|
1,0,4.7|
1,1,2.3|
1,2,0.96|
1,3,7.7|
1,4,1.1|
1,5,4.9|
1,6,3.1|
1,7,1.6|
2,0,7.4|
2,1,8.7|
2,2,4.4|
2,3,7.1|
2,4,7.9|
2,5,2|
2,6,4.8|
2,7,6.7|
3,0,6.2|
3,1,6|
3,2,3.2|
3,3,4.9|
3,4,1.1|
3,5,6.6|
3,6,7.7|
3,7,5.2|
4,0,2.7|
4,1,0.65|
4,2,3.4|
4,3,8.6|
4,4,3.7|
4,5,0.31|
4,6,9.4|
4,7,0.28|
5,0,0.37|
5,1,6.2|
5,2,6.7|
5,3,0.16|
5,4,4.1|
5,5,3.6|
5,6,1.3|
5,7,5.1|
6,0,6.8|
6,1,8.1|
6,2,4.6|
6,3,7.3|
6,4,7.8|
6,5,2.8|
6,6,9.9|
6,7,8.4|
7,0,2.1|
7,1,5.5|
7,2,7|
7,3,0.24|
7,4,2.7|
7,5,5.9|
7,6,1.7|
7,7,4.1|
];
constraint_x8_y8=[
0,0,2.1|
0,1,0.88|
0,2,5.2|
0,3,4.8|
0,4,9.5|
0,5,2.8|
0,6,9.2|
0,7,7.5|
1,0,9.5|
1,1,5|
1,2,0.51|
1,3,6.6|
1,4,1.9|
1,5,9.3|
1,6,0.086|
1,7,7.1|
2,0,9.3|
2,1,8.4|
2,2,0.7|
2,3,1|
2,4,5.3|
2,5,5.2|
2,6,4.4|
2,7,6.9|
3,0,5.6|
3,1,3.8|
3,2,2.3|
3,3,4.2|
3,4,9.7|
3,5,4.9|
3,6,4.7|
3,7,3.6|
4,0,6.9|
4,1,2.5|
4,2,1.2|
4,3,6.2|
4,4,2.4|
4,5,5.9|
4,6,0.61|
4,7,9.1|
5,0,5.6|
5,1,4|
5,2,1.9|
5,3,7.7|
5,4,4.1|
5,5,3.8|
5,6,1.8|
5,7,5.3|
6,0,4.2|
6,1,5.2|
6,2,9|
6,3,4.3|
6,4,2|
6,5,9.8|
6,6,6.1|
6,7,2.7|
7,0,2.8|
7,1,2.3|
7,2,4|
7,3,2.8|
7,4,1.1|
7,5,7.5|
7,6,1.8|
7,7,1.5|
];
initial_distribution_y1=[0.25,0.046,0.19,0.0065,0.045,0.27,0.18,0.011];
initial_distribution_y2=[0.14,0.11,0.094,0.13,0.19,0.034,0.094,0.21];
initial_distribution_y3=[0.19,0.063,0.063,0.0096,0.059,0.24,0.34,0.035];
initial_distribution_y4=[0.0065,0.25,0.25,0.011,0.26,0.12,0.031,0.074];
initial_distribution_y5=[0.19,0.096,0.15,0.13,0.084,0.2,0.14,0.018];
initial_distribution_y6=[0.041,0.071,0.27,0.16,0.16,0.022,0.16,0.12];
initial_distribution_y7=[0.23,0.12,0.23,0.014,0.16,0.22,0.014,0.0099];
initial_distribution_y8=[0.092,0.13,0.11,0.094,0.15,0.13,0.23,0.075];
transition_y1=[
0.29,0.032,0.14,0.0082,0.27,0.021,0.16,0.083|
0.14,0.12,0.17,0.2,0.2,0.044,0.04,0.092|
0.0089,0.2,0.088,0.07,0.16,0.18,0.25,0.041|
0.032,0.18,0.21,0.1,0.12,0.079,0.23,0.055|
0.063,0.16,0.032,0.2,0.036,0.25,0.1,0.16|
0.05,0.18,0.16,0.0068,0.2,0.12,0.072,0.22|
0.077,0.091,0.15,0.24,0.01,0.095,0.15,0.2|
0.099,0.016,0.18,0.12,0.065,0.2,0.21,0.11|
];
transition_y2=[
0.039,0.21,0.076,0.16,0.11,0.12,0.18,0.11|
0.19,0.14,0.18,0.033,0.17,0.16,0.078,0.046|
0.11,0.12,0.039,0.18,0.017,0.081,0.23,0.22|
0.25,0.024,0.22,0.029,0.23,0.074,0.028,0.15|
0.2,0.28,0.17,0.018,0.026,0.12,0.08,0.11|
0.089,0.15,0.14,0.32,0.1,0.015,0.17,0.0072|
0.091,0.15,0.033,0.086,0.11,0.17,0.2,0.17|
0.15,0.053,0.15,0.093,0.2,0.21,0.011,0.13|
];
transition_y3=[
0.18,0.16,0.011,0.036,0.053,0.22,0.23,0.12|
0.13,0.088,0.067,0.3,0.12,0.2,0.091,0.016|
0.085,0.091,0.24,0.18,0.088,0.014,0.053,0.25|
0.044,0.094,0.19,0.2,0.022,0.067,0.19,0.19|
0.16,0.28,0.065,0.063,0.13,0.075,0.039,0.19|
0.1,0.17,0.17,0.12,0.16,0.11,0.11,0.058|
0.016,0.22,0.18,0.11,0.098,0.015,0.042,0.32|
0.22,0.019,0.048,0.17,0.098,0.18,0.17,0.088|
];
transition_y4=[
0.21,0.13,0.12,0.13,0.16,0.057,0.049,0.15|
0.11,0.092,0.1,0.041,0.22,0.065,0.1,0.28|
0.2,0.074,0.097,0.056,0.14,0.12,0.11,0.21|
0.14,0.16,0.083,0.14,0.036,0.22,0.093,0.13|
0.039,0.086,0.18,0.17,0.13,0.22,0.024,0.16|
0.1,0.28,0.075,0.13,0.13,0.11,0.011,0.15|
0.07,0.1,0.13,0.11,0.21,0.24,0.097,0.035|
0.092,0.13,0.12,0.094,0.25,0.14,0.015,0.15|
];
transition_y5=[
0.21,0.069,0.015,0.19,0.11,0.08,0.14,0.18|
0.055,0.16,0.15,0.15,0.14,0.18,0.11,0.067|
0.033,0.15,0.03,0.14,0.18,0.12,0.17,0.19|
0.011,0.22,0.18,0.12,0.13,0.035,0.18,0.12|
0.016,0.13,0.034,0.24,0.04,0.17,0.25,0.13|
0.052,0.16,0.14,0.11,0.2,0.19,0.044,0.091|
0.17,0.19,0.068,0.052,0.1,0.13,0.18,0.12|
0.15,0.15,0.16,0.12,0.091,0.18,0.14,0.011|
];
transition_y6=[
0.072,0.18,0.15,0.16,0.13,0.17,0.046,0.096|
0.059,0.19,0.2,0.15,0.099,0.13,0.1,0.079|
0.11,0.17,0.18,0.13,0.1,0.17,0.061,0.074|
0.016,0.019,0.13,0.18,0.19,0.15,0.18,0.13|
0.11,0.019,0.21,0.1,0.15,0.0096,0.25,0.15|
0.23,0.16,0.075,0.099,0.024,0.12,0.21,0.078|
0.061,0.012,0.14,0.061,0.27,0.2,0.16,0.099|
0.18,0.18,0.044,0.022,0.13,0.2,0.059,0.18|
];
transition_y7=[
0.038,0.016,0.19,0.16,0.2,0.24,0.11,0.05|
0.27,0.22,0.062,0.2,0.12,0.054,0.072,0.011|
0.15,0.0039,0.15,0.12,0.14,0.23,0.069,0.14|
0.23,0.24,0.1,0.07,0.15,0.0072,0.12,0.069|
0.026,0.13,0.17,0.074,0.18,0.13,0.11,0.18|
0.13,0.0052,0.15,0.16,0.082,0.2,0.26,0.012|
0.11,0.027,0.078,0.078,0.21,0.2,0.21,0.09|
0.14,0.037,0.092,0.12,0.2,0.084,0.082,0.25|
];
transition_y8=[
0.011,0.22,0.095,0.11,0.027,0.21,0.12,0.2|
0.067,0.23,0.15,0.1,0.16,0.045,0.19,0.065|
0.13,0.062,0.066,0.16,0.13,0.13,0.28,0.039|
0.19,0.04,0.1,0.15,0.14,0.18,0.18,0.02|
0.028,0.06,0.21,0.16,0.14,0.14,0.056,0.2|
0.025,0.021,0.15,0.042,0.3,0.065,0.32,0.07|
0.14,0.2,0.13,0.15,0.11,0.21,0.051,0.02|
0.0069,0.027,0.23,0.21,0.23,0.13,0.1,0.069|
];
